c nIsolatedPIs 8
c maxPI 56
p cnf 231 526
c gate 57 13 41 0
13 -57 0
41 -57 0
-13 -41 57 0
c gate 58 14 42 0
14 -58 0
42 -58 0
-14 -42 58 0
c gate 59 -57 -58 0
-57 -59 0
-58 -59 0
57 58 59 0
c gate 60 12 40 0
12 -60 0
40 -60 0
-12 -40 60 0
c gate 61 11 39 0
11 -61 0
39 -61 0
-11 -39 61 0
c gate 62 -11 -39 0
-11 -62 0
-39 -62 0
11 39 62 0
c gate 63 10 38 0
10 -63 0
38 -63 0
-10 -38 63 0
c gate 64 9 37 0
9 -64 0
37 -64 0
-9 -37 64 0
c gate 65 -8 -36 0
-8 -65 0
-36 -65 0
8 36 65 0
c gate 66 -6 -34 0
-6 -66 0
-34 -66 0
6 34 66 0
c gate 67 -7 -35 0
-7 -67 0
-35 -67 0
7 35 67 0
c gate 68 -66 -67 0
-66 -68 0
-67 -68 0
66 67 68 0
c gate 69 5 33 0
5 -69 0
33 -69 0
-5 -33 69 0
c gate 70 6 34 0
6 -70 0
34 -70 0
-6 -34 70 0
c gate 71 -69 -70 0
-69 -71 0
-70 -71 0
69 70 71 0
c gate 72 68 -71 0
68 -72 0
-71 -72 0
-68 71 72 0
c gate 73 7 35 0
7 -73 0
35 -73 0
-7 -35 73 0
c gate 74 8 36 0
8 -74 0
36 -74 0
-8 -36 74 0
c gate 75 -73 -74 0
-73 -75 0
-74 -75 0
73 74 75 0
c gate 76 -72 75 0
-72 -76 0
75 -76 0
72 -75 76 0
c gate 77 -65 -76 0
-65 -77 0
-76 -77 0
65 76 77 0
c gate 78 -64 -77 0
-64 -78 0
-77 -78 0
64 77 78 0
c gate 79 -9 -37 0
-9 -79 0
-37 -79 0
9 37 79 0
c gate 80 -10 -38 0
-10 -80 0
-38 -80 0
10 38 80 0
c gate 81 -79 -80 0
-79 -81 0
-80 -81 0
79 80 81 0
c gate 82 -78 81 0
-78 -82 0
81 -82 0
78 -81 82 0
c gate 83 -63 -82 0
-63 -83 0
-82 -83 0
63 82 83 0
c gate 84 -62 -83 0
-62 -84 0
-83 -84 0
62 83 84 0
c gate 85 -61 -84 0
-61 -85 0
-84 -85 0
61 84 85 0
c gate 86 2 30 0
2 -86 0
30 -86 0
-2 -30 86 0
c gate 87 1 29 0
1 -87 0
29 -87 0
-1 -29 87 0
c gate 88 -86 -87 0
-86 -88 0
-87 -88 0
86 87 88 0
c gate 89 -3 -31 0
-3 -89 0
-31 -89 0
3 31 89 0
c gate 90 -2 -30 0
-2 -90 0
-30 -90 0
2 30 90 0
c gate 91 -89 -90 0
-89 -91 0
-90 -91 0
89 90 91 0
c gate 92 -88 91 0
-88 -92 0
91 -92 0
88 -91 92 0
c gate 93 3 31 0
3 -93 0
31 -93 0
-3 -31 93 0
c gate 94 4 32 0
4 -94 0
32 -94 0
-4 -32 94 0
c gate 95 -93 -94 0
-93 -95 0
-94 -95 0
93 94 95 0
c gate 96 -92 95 0
-92 -96 0
95 -96 0
92 -95 96 0
c gate 97 -5 -33 0
-5 -97 0
-33 -97 0
5 33 97 0
c gate 98 -4 -32 0
-4 -98 0
-32 -98 0
4 32 98 0
c gate 99 -65 -98 0
-65 -99 0
-98 -99 0
65 98 99 0
c gate 100 -97 99 0
-97 -100 0
99 -100 0
97 -99 100 0
c gate 101 68 100 0
68 -101 0
100 -101 0
-68 -100 101 0
c gate 102 -96 101 0
-96 -102 0
101 -102 0
96 -101 102 0
c gate 103 76 102 0
76 -103 0
102 -103 0
-76 -102 103 0
c gate 104 -64 -79 0
-64 -104 0
-79 -104 0
64 79 104 0
c gate 105 -62 -80 0
-62 -105 0
-80 -105 0
62 80 105 0
c gate 106 104 105 0
104 -106 0
105 -106 0
-104 -105 106 0
c gate 107 103 106 0
103 -107 0
106 -107 0
-103 -106 107 0
c gate 108 85 -107 0
85 -108 0
-107 -108 0
-85 107 108 0
c gate 109 -60 108 0
-60 -109 0
108 -109 0
60 -108 109 0
c gate 110 -13 -41 0
-13 -110 0
-41 -110 0
13 41 110 0
c gate 111 -57 -110 0
-57 -111 0
-110 -111 0
57 110 111 0
c gate 112 -12 -40 0
-12 -112 0
-40 -112 0
12 40 112 0
c gate 113 111 -112 0
111 -113 0
-112 -113 0
-111 112 113 0
c gate 114 -109 113 0
-109 -114 0
113 -114 0
109 -113 114 0
c gate 115 59 -114 0
59 -115 0
-114 -115 0
-59 114 115 0
c gate 116 -16 -44 0
-16 -116 0
-44 -116 0
16 44 116 0
c gate 117 16 44 0
16 -117 0
44 -117 0
-16 -44 117 0
c gate 118 15 43 0
15 -118 0
43 -118 0
-15 -43 118 0
c gate 119 -117 -118 0
-117 -119 0
-118 -119 0
117 118 119 0
c gate 120 -116 -119 0
-116 -120 0
-119 -120 0
116 119 120 0
c gate 121 115 -120 0
115 -121 0
-120 -121 0
-115 120 121 0
c gate 122 -15 -43 0
-15 -122 0
-43 -122 0
15 43 122 0
c gate 123 -118 -122 0
-118 -123 0
-122 -123 0
118 122 123 0
c gate 124 -116 -117 0
-116 -124 0
-117 -124 0
116 117 124 0
c gate 125 -14 -42 0
-14 -125 0
-42 -125 0
14 42 125 0
c gate 126 124 -125 0
124 -126 0
-125 -126 0
-124 125 126 0
c gate 127 123 126 0
123 -127 0
126 -127 0
-123 -126 127 0
c gate 128 121 127 0
121 -128 0
127 -128 0
-121 -127 128 0
c gate 129 -60 -112 0
-60 -129 0
-112 -129 0
60 112 129 0
c gate 130 -61 105 0
-61 -130 0
105 -130 0
61 -105 130 0
c gate 131 129 130 0
129 -131 0
130 -131 0
-129 -130 131 0
c gate 132 108 131 0
108 -132 0
131 -132 0
-108 -131 132 0
c gate 133 -114 -132 0
-114 -133 0
-132 -133 0
114 132 133 0
c gate 134 61 -112 0
61 -134 0
-112 -134 0
-61 112 134 0
c gate 135 -60 -134 0
-60 -135 0
-134 -135 0
60 134 135 0
c gate 136 -131 135 0
-131 -136 0
135 -136 0
131 -135 136 0
c gate 137 111 -136 0
111 -137 0
-136 -137 0
-111 136 137 0
c gate 138 -133 -137 0
-133 -138 0
-137 -138 0
133 137 138 0
c gate 139 -132 -138 0
-132 -139 0
-138 -139 0
132 138 139 0
c gate 140 -63 104 0
-63 -140 0
104 -140 0
63 -104 140 0
c gate 141 130 140 0
130 -141 0
140 -141 0
-130 -140 141 0
c gate 142 103 -141 0
103 -142 0
-141 -142 0
-103 141 142 0
c gate 143 107 -129 0
107 -143 0
-129 -143 0
-107 129 143 0
c gate 144 85 143 0
85 -144 0
143 -144 0
-85 -143 144 0
c gate 145 -142 -144 0
-142 -145 0
-144 -145 0
142 144 145 0
c gate 146 103 145 0
103 -146 0
145 -146 0
-103 -145 146 0
c gate 147 139 -146 0
139 -147 0
-146 -147 0
-139 146 147 0
c gate 148 -115 -125 0
-115 -148 0
-125 -148 0
115 125 148 0
c gate 149 59 -137 0
59 -149 0
-137 -149 0
-59 137 149 0
c gate 150 126 -149 0
126 -150 0
-149 -150 0
-126 149 150 0
c gate 151 -148 -150 0
-148 -151 0
-150 -151 0
148 150 151 0
c gate 152 -124 149 0
-124 -152 0
149 -152 0
124 -149 152 0
c gate 153 148 -152 0
148 -153 0
-152 -153 0
-148 152 153 0
c gate 154 123 -153 0
123 -154 0
-153 -154 0
-123 153 154 0
c gate 155 -151 154 0
-151 -155 0
154 -155 0
151 -154 155 0
c gate 156 -147 -155 0
-147 -156 0
-155 -156 0
147 155 156 0
c gate 157 -103 139 0
-103 -157 0
139 -157 0
103 -139 157 0
c gate 158 -156 -157 0
-156 -158 0
-157 -158 0
156 157 158 0
c gate 159 -120 -127 0
-120 -159 0
-127 -159 0
120 127 159 0
c gate 160 17 45 0
17 -160 0
45 -160 0
-17 -45 160 0
c gate 161 18 46 0
18 -161 0
46 -161 0
-18 -46 161 0
c gate 162 -160 -161 0
-160 -162 0
-161 -162 0
160 161 162 0
c gate 163 -20 -48 0
-20 -163 0
-48 -163 0
20 48 163 0
c gate 164 -17 -45 0
-17 -164 0
-45 -164 0
17 45 164 0
c gate 165 -163 -164 0
-163 -165 0
-164 -165 0
163 164 165 0
c gate 166 162 165 0
162 -166 0
165 -166 0
-162 -165 166 0
c gate 167 -18 -46 0
-18 -167 0
-46 -167 0
18 46 167 0
c gate 168 -19 -47 0
-19 -168 0
-47 -168 0
19 47 168 0
c gate 169 -167 -168 0
-167 -169 0
-168 -169 0
167 168 169 0
c gate 170 19 47 0
19 -170 0
47 -170 0
-19 -47 170 0
c gate 171 20 48 0
20 -171 0
48 -171 0
-20 -48 171 0
c gate 172 -170 -171 0
-170 -172 0
-171 -172 0
170 171 172 0
c gate 173 169 172 0
169 -173 0
172 -173 0
-169 -172 173 0
c gate 174 166 173 0
166 -174 0
173 -174 0
-166 -173 174 0
c gate 175 -159 174 0
-159 -175 0
174 -175 0
159 -174 175 0
c gate 176 -121 175 0
-121 -176 0
175 -176 0
121 -175 176 0
c gate 177 -162 169 0
-162 -177 0
169 -177 0
162 -169 177 0
c gate 178 172 -177 0
172 -178 0
-177 -178 0
-172 177 178 0
c gate 179 -163 -178 0
-163 -179 0
-178 -179 0
163 178 179 0
c gate 180 -176 -179 0
-176 -180 0
-179 -180 0
176 179 180 0
c gate 181 22 50 0
22 -181 0
50 -181 0
-22 -50 181 0
c gate 182 21 49 0
21 -182 0
49 -182 0
-21 -49 182 0
c gate 183 -181 -182 0
-181 -183 0
-182 -183 0
181 182 183 0
c gate 184 -24 -52 0
-24 -184 0
-52 -184 0
24 52 184 0
c gate 185 -21 -49 0
-21 -185 0
-49 -185 0
21 49 185 0
c gate 186 -184 -185 0
-184 -186 0
-185 -186 0
184 185 186 0
c gate 187 183 186 0
183 -187 0
186 -187 0
-183 -186 187 0
c gate 188 23 51 0
23 -188 0
51 -188 0
-23 -51 188 0
c gate 189 24 52 0
24 -189 0
52 -189 0
-24 -52 189 0
c gate 190 -188 -189 0
-188 -190 0
-189 -190 0
188 189 190 0
c gate 191 -22 -50 0
-22 -191 0
-50 -191 0
22 50 191 0
c gate 192 -23 -51 0
-23 -192 0
-51 -192 0
23 51 192 0
c gate 193 -191 -192 0
-191 -193 0
-192 -193 0
191 192 193 0
c gate 194 190 193 0
190 -194 0
193 -194 0
-190 -193 194 0
c gate 195 187 194 0
187 -195 0
194 -195 0
-187 -194 195 0
c gate 196 -180 195 0
-180 -196 0
195 -196 0
180 -195 196 0
c gate 197 -183 193 0
-183 -197 0
193 -197 0
183 -193 197 0
c gate 198 190 -197 0
190 -198 0
-197 -198 0
-190 197 198 0
c gate 199 -184 -198 0
-184 -199 0
-198 -199 0
184 198 199 0
c gate 200 -27 -55 0
-27 -200 0
-55 -200 0
27 55 200 0
c gate 201 27 55 0
27 -201 0
55 -201 0
-27 -55 201 0
c gate 202 -200 -201 0
-200 -202 0
-201 -202 0
200 201 202 0
c gate 203 -26 -54 0
-26 -203 0
-54 -203 0
26 54 203 0
c gate 204 26 54 0
26 -204 0
54 -204 0
-26 -54 204 0
c gate 205 -203 -204 0
-203 -205 0
-204 -205 0
203 204 205 0
c gate 206 202 205 0
202 -206 0
205 -206 0
-202 -205 206 0
c gate 207 28 -56 0
28 -207 0
-56 -207 0
-28 56 207 0
c gate 208 -28 56 0
-28 -208 0
56 -208 0
28 -56 208 0
c gate 209 -207 -208 0
-207 -209 0
-208 -209 0
207 208 209 0
c gate 210 25 -53 0
25 -210 0
-53 -210 0
-25 53 210 0
c gate 211 -25 53 0
-25 -211 0
53 -211 0
25 -53 211 0
c gate 212 -210 -211 0
-210 -212 0
-211 -212 0
210 211 212 0
c gate 213 -209 -212 0
-209 -213 0
-212 -213 0
209 212 213 0
c gate 214 206 213 0
206 -214 0
213 -214 0
-206 -213 214 0
c gate 215 199 214 0
199 -215 0
214 -215 0
-199 -214 215 0
c gate 216 -196 -215 0
-196 -216 0
-215 -216 0
196 215 216 0
c gate 217 -128 -156 0
-128 -217 0
-156 -217 0
128 156 217 0
c gate 218 -175 -217 0
-175 -218 0
-217 -218 0
175 217 218 0
c gate 219 -179 -195 0
-179 -219 0
-195 -219 0
179 195 219 0
c gate 220 176 -219 0
176 -220 0
-219 -220 0
-176 219 220 0
c gate 221 -218 -220 0
-218 -221 0
-220 -221 0
218 220 221 0
c gate 222 -128 -176 0
-128 -222 0
-176 -222 0
128 176 222 0
c gate 223 -158 222 0
-158 -223 0
222 -223 0
158 -222 223 0
c gate 224 221 -223 0
221 -224 0
-223 -224 0
-221 223 224 0
c gate 225 216 -224 0
216 -225 0
-224 -225 0
-216 224 225 0
c gate 226 -158 225 0
-158 -226 0
225 -226 0
158 -225 226 0
c gate 227 -156 -225 0
-156 -227 0
-225 -227 0
156 225 227 0
c gate 228 -226 -227 0
-226 -228 0
-227 -228 0
226 227 228 0
c gate 229 128 -228 0
128 -229 0
-228 -229 0
-128 228 229 0
c gate 230 -128 228 0
-128 -230 0
228 -230 0
128 -228 230 0
c gate 231 -229 -230 0
-229 -231 0
-230 -231 0
229 230 231 0
c PO
-231 0
